c random CNF
c satisfiable
p cnf 10 50
1 8 -7 -9 0
5 6 10 -9 0
2 3 10 -5 0
1 -2 -3 -5 0
5 6 -1 -10 0
8 -1 -2 0
4 -2 -6 -10 0
8 -1 -9 -10 0
3 -1 -2 0
2 8 -2 -3 0
3 10 -5 -9 0
5 -2 -7 0
1 -3 0
3 4 5 -5 0
4 8 -1 -7 0
5 -1 -3 0
3 4 -1 -7 0
3 -4 -5 -7 0
5 -2 -3 -9 0
4 -1 -2 -9 0
6 -3 -5 -9 0
-4 -5 -8 -9 0
4 5 8 0
4 5 6 7 0
4 -1 -2 -3 0
9 10 -5 -8 0
4 9 -6 -8 0
2 3 8 -1 0
2 6 -5 -6 0
10 -5 -7 0
6 -3 -5 -8 0
1 2 -1 -2 0
3 4 5 0
9 10 -6 0
3 -3 -7 -10 0
8 -3 -6 -7 0
1 6 -5 -10 0
4 -1 -4 -7 0
1 -4 -8 0
3 8 -2 -8 0
1 8 -4 0
7 -2 -7 -8 0
2 6 8 -3 0
1 7 -4 -7 0
4 6 -3 -4 0
4 8 9 -4 0
3 -4 -5 0
9 -1 -4 -6 0
-7 -8 -10 0
1 3 5 -3 0